100
128
36
22
35
11
21
42
36
7
7
2
6
1
23
19
8
34
9
1
4
42
5
36
28
26
4
31
2
36
3
10
11
25
18
2
20
16
23
1
9
11
1
25
15
16
13
7
33
8
20
11
17
38
25
8
1
9
23
13
19
19
36
20
5
9
4
3
17
5
17
45
54
22
37
29
55
34
36
4
49
45
51
23
32
46
1
33
33
1
2
52
28
20
1
47
54
57
63
17
64
14